Maximize
 obj: 2.0 Kx + 8.0 Gx + 16.0 Jx + 4.0 Hx + 7.0 Ax + 12.0 Dx + 7.0 Lx + 14.0 Bx + 7.0 Mx + 3.0 Fx + 24.0 Ix + 21.0 Cx + 19.0 Ex - 0.0 Kd - 37.0 Gd - 24.0 Jd - 4.0 Hd - 10.0 Ad - 16.0 Dd - 0.0 Ld - 32.0 Bd - 0.0 Md - 14.0 Fd - 12.0 Id - 1.0 Cd - 98.0 Ed - 31.0 hyperedge8 - 5.0 hyperedge3 - 45.0 hyperedge12 - 33.0 hyperedge6 - 14.0 hyperedge2 - 4.0 hyperedge1 - 12.0 hyperedge10 - 9.0 hyperedge7 - 14.0 hyperedge5 - 57.0 hyperedge4 - 19.0 hyperedge11 - 8.0 hyperedge9
Subject To
 c44_hyperedge8: Jx - 1 hyperedge8 >= 0
 c43_hyperedge8: Ix - 1 hyperedge8 >= 0
 c44_hyperedge3: Cx - 1 hyperedge3 >= 0
 c43_hyperedge3: Fx + Gx - 2 hyperedge3 >= 0
 c44_hyperedge12: Ex - 1 hyperedge12 >= 0
 c43_hyperedge12: Bx - 1 hyperedge12 >= 0
 c44_hyperedge6: Fx + Gx - 2 hyperedge6 >= 0
 c43_hyperedge6: Ix - 1 hyperedge6 >= 0
 c44_hyperedge2: Bx - 1 hyperedge2 >= 0
 c43_hyperedge2: Fx - 1 hyperedge2 >= 0
 c44_hyperedge1: Ax - 1 hyperedge1 >= 0
 c43_hyperedge1: Dx + Bx - 2 hyperedge1 >= 0
 c44_hyperedge10: Ix - 1 hyperedge10 >= 0
 c43_hyperedge10: Lx + Mx - 2 hyperedge10 >= 0
 c44_hyperedge7: Ix - 1 hyperedge7 >= 0
 c43_hyperedge7: Jx - 1 hyperedge7 >= 0
 c44_hyperedge5: Ex - 1 hyperedge5 >= 0
 c43_hyperedge5: Hx + Lx - 2 hyperedge5 >= 0
 c44_hyperedge4: Dx + Ex - 2 hyperedge4 >= 0
 c43_hyperedge4: Hx + Kx - 2 hyperedge4 >= 0
 c44_hyperedge11: Lx - 1 hyperedge11 >= 0
 c43_hyperedge11: Hx + Kx - 2 hyperedge11 >= 0
 c44_hyperedge9: Hx - 1 hyperedge9 >= 0
 c43_hyperedge9: Lx - 1 hyperedge9 >= 0
 c45_A: Ad - Ax <= 0
 c45_B: Bd - Bx <= 0
 c45_C: Cd - Cx <= 0
 c45_D: Dd - Dx <= 0
 c45_E: Ed - Ex <= 0
 c45_F: Fd - Fx <= 0
 c45_G: Gd - Gx <= 0
 c45_H: Hd - Hx <= 0
 c45_I: Id - Ix <= 0
 c45_J: Jd - Jx <= 0
 c45_K: Kd - Kx <= 0
 c45_L: Ld - Lx <= 0
 c45_M: Md - Mx <= 0
 c46_K: Kd - Kx + hyperedge11 + hyperedge4 >= 0
 c46_G: Gd - Gx + hyperedge3 >= 0
 c46_J: Jd - Jx + hyperedge7 >= 0
 c46_H: Hd - Hx + hyperedge5 + hyperedge11 + hyperedge4 >= 0
 c46_A: Ad - Ax >= 0
 c46_D: Dd - Dx + hyperedge1 >= 0
 c46_L: Ld - Lx + hyperedge5 + hyperedge10 + hyperedge9 >= 0
 c46_B: Bd - Bx + hyperedge1 + hyperedge12 >= 0
 c46_M: Md - Mx + hyperedge10 >= 0
 c46_F: Fd - Fx + hyperedge2 + hyperedge3 >= 0
 c46_I: Id - Ix + hyperedge6 + hyperedge8 >= 0
 c46_C: Cd - Cx >= 0
 c46_E: Ed - Ex >= 0
Bounds
 Kx = 1
 Kd = 0
 Lx = 1
 Ld = 0
 Mx = 1
 Md = 0
Binary
 Ax
 Bx
 Cx
 Dx
 Ex
 Fx
 Gx
 Hx
 Ix
 Jx
 Kx
 Lx
 Mx
 Ad
 Bd
 Cd
 Dd
 Ed
 Fd
 Gd
 Hd
 Id
 Jd
 Kd
 Ld
 Md
 hyperedge1
 hyperedge10
 hyperedge11
 hyperedge12
 hyperedge2
 hyperedge3
 hyperedge4
 hyperedge5
 hyperedge6
 hyperedge7
 hyperedge8
 hyperedge9
End
